data/lp_files/pEFS/85_6.lp
\ Model foo
\ LP format - for model browsing. Use MPS format to capture full model detail.
Minimize
  z
Subject To
 allocateEach[1]: x[1,1] + x[2,1] + x[3,1] + x[4,1] + x[5,1] = 1
 allocateEach[2]: x[1,2] + x[2,2] + x[3,2] + x[4,2] + x[5,2] = 1
 allocateEach[3]: x[1,3] + x[2,3] + x[3,3] + x[4,3] + x[5,3] = 1
 allocateEach[4]: x[1,4] + x[2,4] + x[3,4] + x[4,4] + x[5,4] = 1
 allocateEach[5]: x[1,5] + x[2,5] + x[3,5] + x[4,5] + x[5,5] = 1
 allocateAllCash: cashProportion[1] + cashProportion[2] + cashProportion[3]
   + cashProportion[4] + cashProportion[5] = 1
 findWorstP[1,2]: z + 0.126806999746386 cashProportion[1]
   - 0.126806999746386 cashProportion[2] + 0.2985036774029927 x[1,1]
   + 0.0486938879026122 x[1,2] + 0.2753931016992139 x[1,3]
   + 0.2346246512807507 x[1,4] + 0.0159776819680446 x[1,5]
   - 0.2985036774029927 x[2,1] - 0.0486938879026122 x[2,2]
   - 0.2753931016992139 x[2,3] - 0.2346246512807507 x[2,4]
   - 0.0159776819680446 x[2,5] >= 0
 findWorstP[1,3]: z + 0.126806999746386 cashProportion[1]
   - 0.126806999746386 cashProportion[3] + 0.2985036774029927 x[1,1]
   + 0.0486938879026122 x[1,2] + 0.2753931016992139 x[1,3]
   + 0.2346246512807507 x[1,4] + 0.0159776819680446 x[1,5]
   - 0.2985036774029927 x[3,1] - 0.0486938879026122 x[3,2]
   - 0.2753931016992139 x[3,3] - 0.2346246512807507 x[3,4]
   - 0.0159776819680446 x[3,5] >= 0
 findWorstP[1,4]: z + 0.126806999746386 cashProportion[1]
   - 0.126806999746386 cashProportion[4] + 0.2985036774029927 x[1,1]
   + 0.0486938879026122 x[1,2] + 0.2753931016992139 x[1,3]
   + 0.2346246512807507 x[1,4] + 0.0159776819680446 x[1,5]
   - 0.2985036774029927 x[4,1] - 0.0486938879026122 x[4,2]
   - 0.2753931016992139 x[4,3] - 0.2346246512807507 x[4,4]
   - 0.0159776819680446 x[4,5] >= 0
 findWorstP[1,5]: z + 0.126806999746386 cashProportion[1]
   - 0.126806999746386 cashProportion[5] + 0.2985036774029927 x[1,1]
   + 0.0486938879026122 x[1,2] + 0.2753931016992139 x[1,3]
   + 0.2346246512807507 x[1,4] + 0.0159776819680446 x[1,5]
   - 0.2985036774029927 x[5,1] - 0.0486938879026122 x[5,2]
   - 0.2753931016992139 x[5,3] - 0.2346246512807507 x[5,4]
   - 0.0159776819680446 x[5,5] >= 0
 findWorstP[2,1]: z - 0.1425415152163068 cashProportion[1]
   + 0.1425415152163068 cashProportion[2] - 0.0333190791818117 x[1,1]
   - 0.1941059083458057 x[1,2] - 0.2886465683130212 x[1,3]
   - 0.1793172261421139 x[1,4] - 0.1620697028009408 x[1,5]
   + 0.0333190791818117 x[2,1] + 0.1941059083458057 x[2,2]
   + 0.2886465683130212 x[2,3] + 0.1793172261421139 x[2,4]
   + 0.1620697028009408 x[2,5] >= 0
 findWorstP[2,3]: z + 0.1425415152163068 cashProportion[2]
   - 0.1425415152163068 cashProportion[3] + 0.0333190791818117 x[2,1]
   + 0.1941059083458057 x[2,2] + 0.2886465683130212 x[2,3]
   + 0.1793172261421139 x[2,4] + 0.1620697028009408 x[2,5]
   - 0.0333190791818117 x[3,1] - 0.1941059083458057 x[3,2]
   - 0.2886465683130212 x[3,3] - 0.1793172261421139 x[3,4]
   - 0.1620697028009408 x[3,5] >= 0
 findWorstP[2,4]: z + 0.1425415152163068 cashProportion[2]
   - 0.1425415152163068 cashProportion[4] + 0.0333190791818117 x[2,1]
   + 0.1941059083458057 x[2,2] + 0.2886465683130212 x[2,3]
   + 0.1793172261421139 x[2,4] + 0.1620697028009408 x[2,5]
   - 0.0333190791818117 x[4,1] - 0.1941059083458057 x[4,2]
   - 0.2886465683130212 x[4,3] - 0.1793172261421139 x[4,4]
   - 0.1620697028009408 x[4,5] >= 0
 findWorstP[2,5]: z + 0.1425415152163068 cashProportion[2]
   - 0.1425415152163068 cashProportion[5] + 0.0333190791818117 x[2,1]
   + 0.1941059083458057 x[2,2] + 0.2886465683130212 x[2,3]
   + 0.1793172261421139 x[2,4] + 0.1620697028009408 x[2,5]
   - 0.0333190791818117 x[5,1] - 0.1941059083458057 x[5,2]
   - 0.2886465683130212 x[5,3] - 0.1793172261421139 x[5,4]
   - 0.1620697028009408 x[5,5] >= 0
 findWorstP[3,1]: z - 0.1126887536623845 cashProportion[1]
   + 0.1126887536623845 cashProportion[3] - 0.2068402073473067 x[1,1]
   - 0.2460277214334009 x[1,2] - 0.1654270903763805 x[1,3]
   - 0.0649650664863647 x[1,4] - 0.2040511606941627 x[1,5]
   + 0.2068402073473067 x[3,1] + 0.2460277214334009 x[3,2]
   + 0.1654270903763805 x[3,3] + 0.0649650664863647 x[3,4]
   + 0.2040511606941627 x[3,5] >= 0
 findWorstP[3,2]: z - 0.1126887536623845 cashProportion[2]
   + 0.1126887536623845 cashProportion[3] - 0.2068402073473067 x[2,1]
   - 0.2460277214334009 x[2,2] - 0.1654270903763805 x[2,3]
   - 0.0649650664863647 x[2,4] - 0.2040511606941627 x[2,5]
   + 0.2068402073473067 x[3,1] + 0.2460277214334009 x[3,2]
   + 0.1654270903763805 x[3,3] + 0.0649650664863647 x[3,4]
   + 0.2040511606941627 x[3,5] >= 0
 findWorstP[3,4]: z + 0.1126887536623845 cashProportion[3]
   - 0.1126887536623845 cashProportion[4] + 0.2068402073473067 x[3,1]
   + 0.2460277214334009 x[3,2] + 0.1654270903763805 x[3,3]
   + 0.0649650664863647 x[3,4] + 0.2040511606941627 x[3,5]
   - 0.2068402073473067 x[4,1] - 0.2460277214334009 x[4,2]
   - 0.1654270903763805 x[4,3] - 0.0649650664863647 x[4,4]
   - 0.2040511606941627 x[4,5] >= 0
 findWorstP[3,5]: z + 0.1126887536623845 cashProportion[3]
   - 0.1126887536623845 cashProportion[5] + 0.2068402073473067 x[3,1]
   + 0.2460277214334009 x[3,2] + 0.1654270903763805 x[3,3]
   + 0.0649650664863647 x[3,4] + 0.2040511606941627 x[3,5]
   - 0.2068402073473067 x[5,1] - 0.2460277214334009 x[5,2]
   - 0.1654270903763805 x[5,3] - 0.0649650664863647 x[5,4]
   - 0.2040511606941627 x[5,5] >= 0
 findWorstP[4,1]: z - 0.1018589253883372 cashProportion[1]
   + 0.1018589253883372 cashProportion[4] - 0.2089381207028266 x[1,1]
   - 0.2494270435446906 x[1,2] - 0.2180544945250828 x[1,3]
   - 0.083982683982684 x[1,4] - 0.1377387318563789 x[1,5]
   + 0.2089381207028266 x[4,1] + 0.2494270435446906 x[4,2]
   + 0.2180544945250828 x[4,3] + 0.083982683982684 x[4,4]
   + 0.1377387318563789 x[4,5] >= 0
 findWorstP[4,2]: z - 0.1018589253883372 cashProportion[2]
   + 0.1018589253883372 cashProportion[4] - 0.2089381207028266 x[2,1]
   - 0.2494270435446906 x[2,2] - 0.2180544945250828 x[2,3]
   - 0.083982683982684 x[2,4] - 0.1377387318563789 x[2,5]
   + 0.2089381207028266 x[4,1] + 0.2494270435446906 x[4,2]
   + 0.2180544945250828 x[4,3] + 0.083982683982684 x[4,4]
   + 0.1377387318563789 x[4,5] >= 0
 findWorstP[4,3]: z - 0.1018589253883372 cashProportion[3]
   + 0.1018589253883372 cashProportion[4] - 0.2089381207028266 x[3,1]
   - 0.2494270435446906 x[3,2] - 0.2180544945250828 x[3,3]
   - 0.083982683982684 x[3,4] - 0.1377387318563789 x[3,5]
   + 0.2089381207028266 x[4,1] + 0.2494270435446906 x[4,2]
   + 0.2180544945250828 x[4,3] + 0.083982683982684 x[4,4]
   + 0.1377387318563789 x[4,5] >= 0
 findWorstP[4,5]: z + 0.1018589253883372 cashProportion[4]
   - 0.1018589253883372 cashProportion[5] + 0.2089381207028266 x[4,1]
   + 0.2494270435446906 x[4,2] + 0.2180544945250828 x[4,3]
   + 0.083982683982684 x[4,4] + 0.1377387318563789 x[4,5]
   - 0.2089381207028266 x[5,1] - 0.2494270435446906 x[5,2]
   - 0.2180544945250828 x[5,3] - 0.083982683982684 x[5,4]
   - 0.1377387318563789 x[5,5] >= 0
 findWorstP[5,1]: z - 0.0982028871648827 cashProportion[1]
   + 0.0982028871648827 cashProportion[5] - 0.2222331336541294 x[1,1]
   - 0.0767210055975646 x[1,2] - 0.2181577138367868 x[1,3]
   - 0.2202690759108318 x[1,4] - 0.1644161838358048 x[1,5]
   + 0.2222331336541294 x[5,1] + 0.0767210055975646 x[5,2]
   + 0.2181577138367868 x[5,3] + 0.2202690759108318 x[5,4]
   + 0.1644161838358048 x[5,5] >= 0
 findWorstP[5,2]: z - 0.0982028871648827 cashProportion[2]
   + 0.0982028871648827 cashProportion[5] - 0.2222331336541294 x[2,1]
   - 0.0767210055975646 x[2,2] - 0.2181577138367868 x[2,3]
   - 0.2202690759108318 x[2,4] - 0.1644161838358048 x[2,5]
   + 0.2222331336541294 x[5,1] + 0.0767210055975646 x[5,2]
   + 0.2181577138367868 x[5,3] + 0.2202690759108318 x[5,4]
   + 0.1644161838358048 x[5,5] >= 0
 findWorstP[5,3]: z - 0.0982028871648827 cashProportion[3]
   + 0.0982028871648827 cashProportion[5] - 0.2222331336541294 x[3,1]
   - 0.0767210055975646 x[3,2] - 0.2181577138367868 x[3,3]
   - 0.2202690759108318 x[3,4] - 0.1644161838358048 x[3,5]
   + 0.2222331336541294 x[5,1] + 0.0767210055975646 x[5,2]
   + 0.2181577138367868 x[5,3] + 0.2202690759108318 x[5,4]
   + 0.1644161838358048 x[5,5] >= 0
 findWorstP[5,4]: z - 0.0982028871648827 cashProportion[4]
   + 0.0982028871648827 cashProportion[5] - 0.2222331336541294 x[4,1]
   - 0.0767210055975646 x[4,2] - 0.2181577138367868 x[4,3]
   - 0.2202690759108318 x[4,4] - 0.1644161838358048 x[4,5]
   + 0.2222331336541294 x[5,1] + 0.0767210055975646 x[5,2]
   + 0.2181577138367868 x[5,3] + 0.2202690759108318 x[5,4]
   + 0.1644161838358048 x[5,5] >= 0
Bounds
 z <= 1
 -infinity <= cashProportion[1] <= 1
 -infinity <= cashProportion[2] <= 1
 -infinity <= cashProportion[3] <= 1
 -infinity <= cashProportion[4] <= 1
 -infinity <= cashProportion[5] <= 1
Binaries
 x[1,1] x[1,2] x[1,3] x[1,4] x[1,5] x[2,1] x[2,2] x[2,3] x[2,4] x[2,5]
 x[3,1] x[3,2] x[3,3] x[3,4] x[3,5] x[4,1] x[4,2] x[4,3] x[4,4] x[4,5]
 x[5,1] x[5,2] x[5,3] x[5,4] x[5,5]
End
