data/mps_files/q3/85_6.mps
NAME foo
ROWS
 N  OBJ
 E  allocateEach[1]
 E  allocateEach[2]
 E  allocateEach[3]
 E  allocateEach[4]
 E  allocateEach[5]
 E  allocateAllCash
 G  findWorstP[1,2]
 G  findWorstP[1,3]
 G  findWorstP[1,4]
 G  findWorstP[1,5]
 G  findWorstP[2,1]
 G  findWorstP[2,3]
 G  findWorstP[2,4]
 G  findWorstP[2,5]
 G  findWorstP[3,1]
 G  findWorstP[3,2]
 G  findWorstP[3,4]
 G  findWorstP[3,5]
 G  findWorstP[4,1]
 G  findWorstP[4,2]
 G  findWorstP[4,3]
 G  findWorstP[4,5]
 G  findWorstP[5,1]
 G  findWorstP[5,2]
 G  findWorstP[5,3]
 G  findWorstP[5,4]
COLUMNS
    z         OBJ       1
    z         findWorstP[1,2]  1
    z         findWorstP[1,3]  1
    z         findWorstP[1,4]  1
    z         findWorstP[1,5]  1
    z         findWorstP[2,1]  1
    z         findWorstP[2,3]  1
    z         findWorstP[2,4]  1
    z         findWorstP[2,5]  1
    z         findWorstP[3,1]  1
    z         findWorstP[3,2]  1
    z         findWorstP[3,4]  1
    z         findWorstP[3,5]  1
    z         findWorstP[4,1]  1
    z         findWorstP[4,2]  1
    z         findWorstP[4,3]  1
    z         findWorstP[4,5]  1
    z         findWorstP[5,1]  1
    z         findWorstP[5,2]  1
    z         findWorstP[5,3]  1
    z         findWorstP[5,4]  1
    cashProportion[1]  allocateAllCash  1
    cashProportion[1]  findWorstP[1,2]  1.2680699974638604e-01
    cashProportion[1]  findWorstP[1,3]  1.2680699974638604e-01
    cashProportion[1]  findWorstP[1,4]  1.2680699974638604e-01
    cashProportion[1]  findWorstP[1,5]  1.2680699974638604e-01
    cashProportion[1]  findWorstP[2,1]  -1.4254151521630676e-01
    cashProportion[1]  findWorstP[3,1]  -1.1268875366238450e-01
    cashProportion[1]  findWorstP[4,1]  -1.0185892538833717e-01
    cashProportion[1]  findWorstP[5,1]  -9.8202887164882652e-02
    cashProportion[2]  allocateAllCash  1
    cashProportion[2]  findWorstP[1,2]  -1.2680699974638604e-01
    cashProportion[2]  findWorstP[2,1]  1.4254151521630676e-01
    cashProportion[2]  findWorstP[2,3]  1.4254151521630676e-01
    cashProportion[2]  findWorstP[2,4]  1.4254151521630676e-01
    cashProportion[2]  findWorstP[2,5]  1.4254151521630676e-01
    cashProportion[2]  findWorstP[3,2]  -1.1268875366238450e-01
    cashProportion[2]  findWorstP[4,2]  -1.0185892538833717e-01
    cashProportion[2]  findWorstP[5,2]  -9.8202887164882652e-02
    cashProportion[3]  allocateAllCash  1
    cashProportion[3]  findWorstP[1,3]  -1.2680699974638604e-01
    cashProportion[3]  findWorstP[2,3]  -1.4254151521630676e-01
    cashProportion[3]  findWorstP[3,1]  1.1268875366238450e-01
    cashProportion[3]  findWorstP[3,2]  1.1268875366238450e-01
    cashProportion[3]  findWorstP[3,4]  1.1268875366238450e-01
    cashProportion[3]  findWorstP[3,5]  1.1268875366238450e-01
    cashProportion[3]  findWorstP[4,3]  -1.0185892538833717e-01
    cashProportion[3]  findWorstP[5,3]  -9.8202887164882652e-02
    cashProportion[4]  allocateAllCash  1
    cashProportion[4]  findWorstP[1,4]  -1.2680699974638604e-01
    cashProportion[4]  findWorstP[2,4]  -1.4254151521630676e-01
    cashProportion[4]  findWorstP[3,4]  -1.1268875366238450e-01
    cashProportion[4]  findWorstP[4,1]  1.0185892538833717e-01
    cashProportion[4]  findWorstP[4,2]  1.0185892538833717e-01
    cashProportion[4]  findWorstP[4,3]  1.0185892538833717e-01
    cashProportion[4]  findWorstP[4,5]  1.0185892538833717e-01
    cashProportion[4]  findWorstP[5,4]  -9.8202887164882652e-02
    cashProportion[5]  allocateAllCash  1
    cashProportion[5]  findWorstP[1,5]  -1.2680699974638604e-01
    cashProportion[5]  findWorstP[2,5]  -1.4254151521630676e-01
    cashProportion[5]  findWorstP[3,5]  -1.1268875366238450e-01
    cashProportion[5]  findWorstP[4,5]  -1.0185892538833717e-01
    cashProportion[5]  findWorstP[5,1]  9.8202887164882652e-02
    cashProportion[5]  findWorstP[5,2]  9.8202887164882652e-02
    cashProportion[5]  findWorstP[5,3]  9.8202887164882652e-02
    cashProportion[5]  findWorstP[5,4]  9.8202887164882652e-02
    MARKER    'MARKER'                 'INTORG'
    x[1,1]    allocateEach[1]  1
    x[1,1]    findWorstP[1,2]  2.9850367740299272e-01
    x[1,1]    findWorstP[1,3]  2.9850367740299272e-01
    x[1,1]    findWorstP[1,4]  2.9850367740299272e-01
    x[1,1]    findWorstP[1,5]  2.9850367740299272e-01
    x[1,1]    findWorstP[2,1]  -3.3319079181811706e-02
    x[1,1]    findWorstP[3,1]  -2.0684020734730671e-01
    x[1,1]    findWorstP[4,1]  -2.0893812070282661e-01
    x[1,1]    findWorstP[5,1]  -2.2223313365412942e-01
    x[1,2]    allocateEach[2]  1
    x[1,2]    findWorstP[1,2]  4.8693887902612233e-02
    x[1,2]    findWorstP[1,3]  4.8693887902612233e-02
    x[1,2]    findWorstP[1,4]  4.8693887902612233e-02
    x[1,2]    findWorstP[1,5]  4.8693887902612233e-02
    x[1,2]    findWorstP[2,1]  -1.9410590834580571e-01
    x[1,2]    findWorstP[3,1]  -2.4602772143340093e-01
    x[1,2]    findWorstP[4,1]  -2.4942704354469064e-01
    x[1,2]    findWorstP[5,1]  -7.6721005597564562e-02
    x[1,3]    allocateEach[3]  1
    x[1,3]    findWorstP[1,2]  2.7539310169921388e-01
    x[1,3]    findWorstP[1,3]  2.7539310169921388e-01
    x[1,3]    findWorstP[1,4]  2.7539310169921388e-01
    x[1,3]    findWorstP[1,5]  2.7539310169921388e-01
    x[1,3]    findWorstP[2,1]  -2.8864656831302121e-01
    x[1,3]    findWorstP[3,1]  -1.6542709037638045e-01
    x[1,3]    findWorstP[4,1]  -2.1805449452508277e-01
    x[1,3]    findWorstP[5,1]  -2.1815771383678678e-01
    x[1,4]    allocateEach[4]  1
    x[1,4]    findWorstP[1,2]  2.3462465128075075e-01
    x[1,4]    findWorstP[1,3]  2.3462465128075075e-01
    x[1,4]    findWorstP[1,4]  2.3462465128075075e-01
    x[1,4]    findWorstP[1,5]  2.3462465128075075e-01
    x[1,4]    findWorstP[2,1]  -1.7931722614211390e-01
    x[1,4]    findWorstP[3,1]  -6.4965066486364659e-02
    x[1,4]    findWorstP[4,1]  -8.3982683982683992e-02
    x[1,4]    findWorstP[5,1]  -2.2026907591083178e-01
    x[1,5]    allocateEach[5]  1
    x[1,5]    findWorstP[1,2]  1.5977681968044638e-02
    x[1,5]    findWorstP[1,3]  1.5977681968044638e-02
    x[1,5]    findWorstP[1,4]  1.5977681968044638e-02
    x[1,5]    findWorstP[1,5]  1.5977681968044638e-02
    x[1,5]    findWorstP[2,1]  -1.6206970280094077e-01
    x[1,5]    findWorstP[3,1]  -2.0405116069416274e-01
    x[1,5]    findWorstP[4,1]  -1.3773873185637894e-01
    x[1,5]    findWorstP[5,1]  -1.6441618383580475e-01
    x[2,1]    allocateEach[1]  1
    x[2,1]    findWorstP[1,2]  -2.9850367740299272e-01
    x[2,1]    findWorstP[2,1]  3.3319079181811706e-02
    x[2,1]    findWorstP[2,3]  3.3319079181811706e-02
    x[2,1]    findWorstP[2,4]  3.3319079181811706e-02
    x[2,1]    findWorstP[2,5]  3.3319079181811706e-02
    x[2,1]    findWorstP[3,2]  -2.0684020734730671e-01
    x[2,1]    findWorstP[4,2]  -2.0893812070282661e-01
    x[2,1]    findWorstP[5,2]  -2.2223313365412942e-01
    x[2,2]    allocateEach[2]  1
    x[2,2]    findWorstP[1,2]  -4.8693887902612233e-02
    x[2,2]    findWorstP[2,1]  1.9410590834580571e-01
    x[2,2]    findWorstP[2,3]  1.9410590834580571e-01
    x[2,2]    findWorstP[2,4]  1.9410590834580571e-01
    x[2,2]    findWorstP[2,5]  1.9410590834580571e-01
    x[2,2]    findWorstP[3,2]  -2.4602772143340093e-01
    x[2,2]    findWorstP[4,2]  -2.4942704354469064e-01
    x[2,2]    findWorstP[5,2]  -7.6721005597564562e-02
    x[2,3]    allocateEach[3]  1
    x[2,3]    findWorstP[1,2]  -2.7539310169921388e-01
    x[2,3]    findWorstP[2,1]  2.8864656831302121e-01
    x[2,3]    findWorstP[2,3]  2.8864656831302121e-01
    x[2,3]    findWorstP[2,4]  2.8864656831302121e-01
    x[2,3]    findWorstP[2,5]  2.8864656831302121e-01
    x[2,3]    findWorstP[3,2]  -1.6542709037638045e-01
    x[2,3]    findWorstP[4,2]  -2.1805449452508277e-01
    x[2,3]    findWorstP[5,2]  -2.1815771383678678e-01
    x[2,4]    allocateEach[4]  1
    x[2,4]    findWorstP[1,2]  -2.3462465128075075e-01
    x[2,4]    findWorstP[2,1]  1.7931722614211390e-01
    x[2,4]    findWorstP[2,3]  1.7931722614211390e-01
    x[2,4]    findWorstP[2,4]  1.7931722614211390e-01
    x[2,4]    findWorstP[2,5]  1.7931722614211390e-01
    x[2,4]    findWorstP[3,2]  -6.4965066486364659e-02
    x[2,4]    findWorstP[4,2]  -8.3982683982683992e-02
    x[2,4]    findWorstP[5,2]  -2.2026907591083178e-01
    x[2,5]    allocateEach[5]  1
    x[2,5]    findWorstP[1,2]  -1.5977681968044638e-02
    x[2,5]    findWorstP[2,1]  1.6206970280094077e-01
    x[2,5]    findWorstP[2,3]  1.6206970280094077e-01
    x[2,5]    findWorstP[2,4]  1.6206970280094077e-01
    x[2,5]    findWorstP[2,5]  1.6206970280094077e-01
    x[2,5]    findWorstP[3,2]  -2.0405116069416274e-01
    x[2,5]    findWorstP[4,2]  -1.3773873185637894e-01
    x[2,5]    findWorstP[5,2]  -1.6441618383580475e-01
    x[3,1]    allocateEach[1]  1
    x[3,1]    findWorstP[1,3]  -2.9850367740299272e-01
    x[3,1]    findWorstP[2,3]  -3.3319079181811706e-02
    x[3,1]    findWorstP[3,1]  2.0684020734730671e-01
    x[3,1]    findWorstP[3,2]  2.0684020734730671e-01
    x[3,1]    findWorstP[3,4]  2.0684020734730671e-01
    x[3,1]    findWorstP[3,5]  2.0684020734730671e-01
    x[3,1]    findWorstP[4,3]  -2.0893812070282661e-01
    x[3,1]    findWorstP[5,3]  -2.2223313365412942e-01
    x[3,2]    allocateEach[2]  1
    x[3,2]    findWorstP[1,3]  -4.8693887902612233e-02
    x[3,2]    findWorstP[2,3]  -1.9410590834580571e-01
    x[3,2]    findWorstP[3,1]  2.4602772143340093e-01
    x[3,2]    findWorstP[3,2]  2.4602772143340093e-01
    x[3,2]    findWorstP[3,4]  2.4602772143340093e-01
    x[3,2]    findWorstP[3,5]  2.4602772143340093e-01
    x[3,2]    findWorstP[4,3]  -2.4942704354469064e-01
    x[3,2]    findWorstP[5,3]  -7.6721005597564562e-02
    x[3,3]    allocateEach[3]  1
    x[3,3]    findWorstP[1,3]  -2.7539310169921388e-01
    x[3,3]    findWorstP[2,3]  -2.8864656831302121e-01
    x[3,3]    findWorstP[3,1]  1.6542709037638045e-01
    x[3,3]    findWorstP[3,2]  1.6542709037638045e-01
    x[3,3]    findWorstP[3,4]  1.6542709037638045e-01
    x[3,3]    findWorstP[3,5]  1.6542709037638045e-01
    x[3,3]    findWorstP[4,3]  -2.1805449452508277e-01
    x[3,3]    findWorstP[5,3]  -2.1815771383678678e-01
    x[3,4]    allocateEach[4]  1
    x[3,4]    findWorstP[1,3]  -2.3462465128075075e-01
    x[3,4]    findWorstP[2,3]  -1.7931722614211390e-01
    x[3,4]    findWorstP[3,1]  6.4965066486364659e-02
    x[3,4]    findWorstP[3,2]  6.4965066486364659e-02
    x[3,4]    findWorstP[3,4]  6.4965066486364659e-02
    x[3,4]    findWorstP[3,5]  6.4965066486364659e-02
    x[3,4]    findWorstP[4,3]  -8.3982683982683992e-02
    x[3,4]    findWorstP[5,3]  -2.2026907591083178e-01
    x[3,5]    allocateEach[5]  1
    x[3,5]    findWorstP[1,3]  -1.5977681968044638e-02
    x[3,5]    findWorstP[2,3]  -1.6206970280094077e-01
    x[3,5]    findWorstP[3,1]  2.0405116069416274e-01
    x[3,5]    findWorstP[3,2]  2.0405116069416274e-01
    x[3,5]    findWorstP[3,4]  2.0405116069416274e-01
    x[3,5]    findWorstP[3,5]  2.0405116069416274e-01
    x[3,5]    findWorstP[4,3]  -1.3773873185637894e-01
    x[3,5]    findWorstP[5,3]  -1.6441618383580475e-01
    x[4,1]    allocateEach[1]  1
    x[4,1]    findWorstP[1,4]  -2.9850367740299272e-01
    x[4,1]    findWorstP[2,4]  -3.3319079181811706e-02
    x[4,1]    findWorstP[3,4]  -2.0684020734730671e-01
    x[4,1]    findWorstP[4,1]  2.0893812070282661e-01
    x[4,1]    findWorstP[4,2]  2.0893812070282661e-01
    x[4,1]    findWorstP[4,3]  2.0893812070282661e-01
    x[4,1]    findWorstP[4,5]  2.0893812070282661e-01
    x[4,1]    findWorstP[5,4]  -2.2223313365412942e-01
    x[4,2]    allocateEach[2]  1
    x[4,2]    findWorstP[1,4]  -4.8693887902612233e-02
    x[4,2]    findWorstP[2,4]  -1.9410590834580571e-01
    x[4,2]    findWorstP[3,4]  -2.4602772143340093e-01
    x[4,2]    findWorstP[4,1]  2.4942704354469064e-01
    x[4,2]    findWorstP[4,2]  2.4942704354469064e-01
    x[4,2]    findWorstP[4,3]  2.4942704354469064e-01
    x[4,2]    findWorstP[4,5]  2.4942704354469064e-01
    x[4,2]    findWorstP[5,4]  -7.6721005597564562e-02
    x[4,3]    allocateEach[3]  1
    x[4,3]    findWorstP[1,4]  -2.7539310169921388e-01
    x[4,3]    findWorstP[2,4]  -2.8864656831302121e-01
    x[4,3]    findWorstP[3,4]  -1.6542709037638045e-01
    x[4,3]    findWorstP[4,1]  2.1805449452508277e-01
    x[4,3]    findWorstP[4,2]  2.1805449452508277e-01
    x[4,3]    findWorstP[4,3]  2.1805449452508277e-01
    x[4,3]    findWorstP[4,5]  2.1805449452508277e-01
    x[4,3]    findWorstP[5,4]  -2.1815771383678678e-01
    x[4,4]    allocateEach[4]  1
    x[4,4]    findWorstP[1,4]  -2.3462465128075075e-01
    x[4,4]    findWorstP[2,4]  -1.7931722614211390e-01
    x[4,4]    findWorstP[3,4]  -6.4965066486364659e-02
    x[4,4]    findWorstP[4,1]  8.3982683982683992e-02
    x[4,4]    findWorstP[4,2]  8.3982683982683992e-02
    x[4,4]    findWorstP[4,3]  8.3982683982683992e-02
    x[4,4]    findWorstP[4,5]  8.3982683982683992e-02
    x[4,4]    findWorstP[5,4]  -2.2026907591083178e-01
    x[4,5]    allocateEach[5]  1
    x[4,5]    findWorstP[1,4]  -1.5977681968044638e-02
    x[4,5]    findWorstP[2,4]  -1.6206970280094077e-01
    x[4,5]    findWorstP[3,4]  -2.0405116069416274e-01
    x[4,5]    findWorstP[4,1]  1.3773873185637894e-01
    x[4,5]    findWorstP[4,2]  1.3773873185637894e-01
    x[4,5]    findWorstP[4,3]  1.3773873185637894e-01
    x[4,5]    findWorstP[4,5]  1.3773873185637894e-01
    x[4,5]    findWorstP[5,4]  -1.6441618383580475e-01
    x[5,1]    allocateEach[1]  1
    x[5,1]    findWorstP[1,5]  -2.9850367740299272e-01
    x[5,1]    findWorstP[2,5]  -3.3319079181811706e-02
    x[5,1]    findWorstP[3,5]  -2.0684020734730671e-01
    x[5,1]    findWorstP[4,5]  -2.0893812070282661e-01
    x[5,1]    findWorstP[5,1]  2.2223313365412942e-01
    x[5,1]    findWorstP[5,2]  2.2223313365412942e-01
    x[5,1]    findWorstP[5,3]  2.2223313365412942e-01
    x[5,1]    findWorstP[5,4]  2.2223313365412942e-01
    x[5,2]    allocateEach[2]  1
    x[5,2]    findWorstP[1,5]  -4.8693887902612233e-02
    x[5,2]    findWorstP[2,5]  -1.9410590834580571e-01
    x[5,2]    findWorstP[3,5]  -2.4602772143340093e-01
    x[5,2]    findWorstP[4,5]  -2.4942704354469064e-01
    x[5,2]    findWorstP[5,1]  7.6721005597564562e-02
    x[5,2]    findWorstP[5,2]  7.6721005597564562e-02
    x[5,2]    findWorstP[5,3]  7.6721005597564562e-02
    x[5,2]    findWorstP[5,4]  7.6721005597564562e-02
    x[5,3]    allocateEach[3]  1
    x[5,3]    findWorstP[1,5]  -2.7539310169921388e-01
    x[5,3]    findWorstP[2,5]  -2.8864656831302121e-01
    x[5,3]    findWorstP[3,5]  -1.6542709037638045e-01
    x[5,3]    findWorstP[4,5]  -2.1805449452508277e-01
    x[5,3]    findWorstP[5,1]  2.1815771383678678e-01
    x[5,3]    findWorstP[5,2]  2.1815771383678678e-01
    x[5,3]    findWorstP[5,3]  2.1815771383678678e-01
    x[5,3]    findWorstP[5,4]  2.1815771383678678e-01
    x[5,4]    allocateEach[4]  1
    x[5,4]    findWorstP[1,5]  -2.3462465128075075e-01
    x[5,4]    findWorstP[2,5]  -1.7931722614211390e-01
    x[5,4]    findWorstP[3,5]  -6.4965066486364659e-02
    x[5,4]    findWorstP[4,5]  -8.3982683982683992e-02
    x[5,4]    findWorstP[5,1]  2.2026907591083178e-01
    x[5,4]    findWorstP[5,2]  2.2026907591083178e-01
    x[5,4]    findWorstP[5,3]  2.2026907591083178e-01
    x[5,4]    findWorstP[5,4]  2.2026907591083178e-01
    x[5,5]    allocateEach[5]  1
    x[5,5]    findWorstP[1,5]  -1.5977681968044638e-02
    x[5,5]    findWorstP[2,5]  -1.6206970280094077e-01
    x[5,5]    findWorstP[3,5]  -2.0405116069416274e-01
    x[5,5]    findWorstP[4,5]  -1.3773873185637894e-01
    x[5,5]    findWorstP[5,1]  1.6441618383580475e-01
    x[5,5]    findWorstP[5,2]  1.6441618383580475e-01
    x[5,5]    findWorstP[5,3]  1.6441618383580475e-01
    x[5,5]    findWorstP[5,4]  1.6441618383580475e-01
    MARKER    'MARKER'                 'INTEND'
RHS
    RHS1      allocateEach[1]  1
    RHS1      allocateEach[2]  1
    RHS1      allocateEach[3]  1
    RHS1      allocateEach[4]  1
    RHS1      allocateEach[5]  1
    RHS1      allocateAllCash  1
BOUNDS
 UP BND1      z         1
 MI BND1      cashProportion[1]
 UP BND1      cashProportion[1]  1
 MI BND1      cashProportion[2]
 UP BND1      cashProportion[2]  1
 MI BND1      cashProportion[3]
 UP BND1      cashProportion[3]  1
 MI BND1      cashProportion[4]
 UP BND1      cashProportion[4]  1
 MI BND1      cashProportion[5]
 UP BND1      cashProportion[5]  1
 BV BND1      x[1,1]  
 BV BND1      x[1,2]  
 BV BND1      x[1,3]  
 BV BND1      x[1,4]  
 BV BND1      x[1,5]  
 BV BND1      x[2,1]  
 BV BND1      x[2,2]  
 BV BND1      x[2,3]  
 BV BND1      x[2,4]  
 BV BND1      x[2,5]  
 BV BND1      x[3,1]  
 BV BND1      x[3,2]  
 BV BND1      x[3,3]  
 BV BND1      x[3,4]  
 BV BND1      x[3,5]  
 BV BND1      x[4,1]  
 BV BND1      x[4,2]  
 BV BND1      x[4,3]  
 BV BND1      x[4,4]  
 BV BND1      x[4,5]  
 BV BND1      x[5,1]  
 BV BND1      x[5,2]  
 BV BND1      x[5,3]  
 BV BND1      x[5,4]  
 BV BND1      x[5,5]  
ENDATA
